NAME: Random_55_4
ELLAPSED_TIME_(ms): 0
TOUR_SIZE: 1207.5242
TOUR_SECTION
0
15
53
3
20
23
30
42
16
14
38
50
34
54
32
40
29
28
39
10
13
37
4
43
36
44
8
9
27
1
18
48
12
17
33
41
52
49
47
31
11
24
25
45
22
21
46
6
5
19
2
35
7
51
26
0
EOF
